# The party graph
#
#  Adam  knows {Dan,Alice,Peter,Eva},  {2,3,4,5}
#  Dan   knows {Adam,Alice,Peter},     {1,4,5}
#  Eva   knows {Alice,Peter},          {4,5}
#  Alice knows {Peter},                {5}
#  Peter knows {Alice}                 {4}
#
# We assume that a celebrity knowns him-/herself.
param n := 5;
param graph: 1 2 3 4 5 :=
  # 1 2 3 4 5
1   1 1 1 1 1
2   1 1 . 1 1
3   . . 1 1 1
4   . . . 1 1
5   . . . 1 1
;
